20
10	58	48	84	12
6	107	177	1	35
9	42	163	13	10
5	30	141	100	77
9	120	95	27	20
1	75	86	1	100
9	135	170	57	98
3	45	43	58	100
4	89	69	35	93
1	2	93	45	94
4	11	96	47	0
10	73	58	18	70
8	114	179	79	14
8	19	126	57	36
7	44	166	68	71
10	66	98	20	71
5	60	158	53	1
10	126	102	91	72
6	81	178	26	83
10	16	109	29	7
